NAME : att48.tsp
TYPE : TOUR
DIMENSION : 48
TOUR_LENGTH : 36389.01737093253
TOUR_SECTION
1
9
38
31
44
18
7
28
6
37
19
27
43
17
30
36
33
46
15
12
11
23
13
25
14
34
3
22
16
41
29
2
42
26
4
35
45
10
24
32
39
48
5
21
47
20
40
8
-1
